c description: Subset cardinality formula for Random regular bipartite with (6,6) vertices and left degree 4 + 1 random edges
c generator: CNFgen (0.9.0)
c copyright: (C) 2012-2020 Massimo Lauria <massimo.lauria@uniroma1.it>
c url: https://massimolauria.net/cnfgen
c command line: cnfgen subsetcard 6
c
p cnf 25 60
1 2 3 0
1 2 4 0
1 3 4 0
2 3 4 0
5 6 7 0
5 6 8 0
5 6 9 0
5 7 8 0
5 7 9 0
5 8 9 0
6 7 8 0
6 7 9 0
6 8 9 0
7 8 9 0
10 11 12 0
10 11 13 0
10 12 13 0
11 12 13 0
14 15 16 0
14 15 17 0
14 16 17 0
15 16 17 0
18 19 20 0
18 19 21 0
18 20 21 0
19 20 21 0
22 23 24 0
22 23 25 0
22 24 25 0
23 24 25 0
-5 -14 -18 0
-5 -14 -22 0
-5 -18 -22 0
-14 -18 -22 0
-6 -10 -15 0
-6 -10 -23 0
-6 -15 -23 0
-10 -15 -23 0
-1 -11 -16 0
-1 -11 -19 0
-1 -16 -19 0
-11 -16 -19 0
-2 -7 -12 0
-2 -7 -17 0
-2 -7 -20 0
-2 -12 -17 0
-2 -12 -20 0
-2 -17 -20 0
-7 -12 -17 0
-7 -12 -20 0
-7 -17 -20 0
-12 -17 -20 0
-3 -8 -21 0
-3 -8 -24 0
-3 -21 -24 0
-8 -21 -24 0
-4 -9 -13 0
-4 -9 -25 0
-4 -13 -25 0
-9 -13 -25 0
